NAME: Christofides-5
BEST_KNOWN: 1291.29
COMMENT: 1291.290000
DIMENSION: 200
CAPACITY: 200
EDGE_WEIGHT_FORMAT: FUNCTION
EDGE_WEIGHT_TYPE: EXACT_2D
NODE_COORD_SECTION
1 0.00000 0.00000
2 -13.00000 -13.00000
3 1.00000 -9.00000
4 -14.00000 10.00000
5 10.00000 0.00000
6 20.00000 -15.00000
7 -2.00000 -1.00000
8 15.00000 15.00000
9 20.00000 10.00000
10 -9.00000 24.00000
11 5.00000 31.00000
12 20.00000 30.00000
13 0.00000 16.00000
14 27.00000 0.00000
15 27.00000 22.00000
16 27.00000 -11.00000
17 -14.00000 1.00000
18 -2.00000 9.00000
19 -26.00000 21.00000
20 27.00000 13.00000
21 31.00000 -21.00000
22 9.00000 -22.00000
23 -9.00000 -22.00000
24 -24.00000 -7.00000
25 -28.00000 8.00000
26 -18.00000 29.00000
27 6.00000 11.00000
28 20.00000 -1.00000
29 0.00000 -19.00000
30 17.00000 -9.00000
31 8.00000 -9.00000
32 -4.00000 41.00000
33 -13.00000 18.00000
34 -9.00000 -6.00000
35 15.00000 5.00000
36 20.00000 15.00000
37 19.00000 -25.00000
38 25.00000 -20.00000
39 12.00000 31.00000
40 -5.00000 25.00000
41 -5.00000 15.00000
42 -23.00000 -18.00000
43 -20.00000 -21.00000
44 -19.00000 -16.00000
45 -14.00000 13.00000
46 15.00000 -5.00000
47 16.00000 7.00000
48 15.00000 -20.00000
49 13.00000 -14.00000
50 -23.00000 3.00000
51 2.00000 17.00000
52 14.00000 14.00000
53 17.00000 29.00000
54 -15.00000 -9.00000
55 5.00000 -5.00000
56 -14.00000 12.00000
57 -18.00000 28.00000
58 -4.00000 27.00000
59 17.00000 -2.00000
60 16.00000 -14.00000
61 7.00000 6.00000
62 -4.00000 -3.00000
63 -30.00000 -10.00000
64 -23.00000 7.00000
65 1.00000 -19.00000
66 17.00000 6.00000
67 -8.00000 -12.00000
68 -18.00000 -2.00000
69 -22.00000 -22.00000
70 22.00000 23.00000
71 27.00000 7.00000
72 7.00000 22.00000
73 -19.00000 22.00000
74 -27.00000 17.00000
75 -28.00000 3.00000
76 -8.00000 33.00000
77 -5.00000 13.00000
78 8.00000 32.00000
79 23.00000 13.00000
80 23.00000 -8.00000
81 2.00000 34.00000
82 3.00000 11.00000
83 11.00000 -25.00000
84 26.00000 -2.00000
85 27.00000 28.00000
86 28.00000 34.00000
87 -3.00000 -13.00000
88 10.00000 0.00000
89 24.00000 -20.00000
90 -30.00000 -29.00000
91 -25.00000 -18.00000
92 -14.00000 -25.00000
93 -30.00000 29.00000
94 -5.00000 -20.00000
95 4.00000 -25.00000
96 -3.00000 4.00000
97 -10.00000 -3.00000
98 -10.00000 20.00000
99 13.00000 -7.00000
100 21.00000 2.00000
101 6.00000 14.00000
102 0.00000 -18.00000
103 20.00000 10.00000
104 20.00000 -15.00000
105 -20.00000 -5.00000
106 -10.00000 -5.00000
107 -15.00000 15.00000
108 -25.00000 8.00000
109 20.00000 25.00000
110 -5.00000 25.00000
111 -15.00000 30.00000
112 15.00000 0.00000
113 -5.00000 -10.00000
114 -20.00000 -25.00000
115 -5.00000 -30.00000
116 -25.00000 -15.00000
117 -30.00000 -5.00000
118 -15.00000 5.00000
119 -20.00000 25.00000
120 10.00000 30.00000
121 10.00000 -15.00000
122 10.00000 -25.00000
123 20.00000 -30.00000
124 30.00000 0.00000
125 30.00000 -15.00000
126 10.00000 -5.00000
127 0.00000 5.00000
128 6.00000 2.00000
129 29.00000 7.00000
130 5.00000 25.00000
131 -4.00000 17.00000
132 0.00000 34.00000
133 18.00000 17.00000
134 30.00000 20.00000
135 28.00000 30.00000
136 -33.00000 25.00000
137 -15.00000 -15.00000
138 -30.00000 -30.00000
139 25.00000 -23.00000
140 5.00000 -10.00000
141 7.00000 -28.00000
142 -11.00000 -23.00000
143 -12.00000 -32.00000
144 -24.00000 -21.00000
145 -29.00000 3.00000
146 -33.00000 13.00000
147 -27.00000 21.00000
148 -22.00000 17.00000
149 -29.00000 33.00000
150 12.00000 12.00000
151 14.00000 23.00000
152 -8.00000 8.00000
153 2.00000 -4.00000
154 22.00000 -6.00000
155 28.00000 -12.00000
156 18.00000 -23.00000
157 -3.00000 -23.00000
158 1.00000 -9.00000
159 -14.00000 -11.00000
160 -18.00000 -1.00000
161 -23.00000 -11.00000
162 -11.00000 23.00000
163 -8.00000 34.00000
164 -20.00000 42.00000
165 27.00000 42.00000
166 14.00000 38.00000
167 32.00000 -30.00000
168 21.00000 4.00000
169 2.00000 12.00000
170 2.00000 21.00000
171 22.00000 33.00000
172 12.00000 -19.00000
173 9.00000 -18.00000
174 11.00000 -22.00000
175 14.00000 -24.00000
176 14.00000 7.00000
177 18.00000 8.00000
178 26.00000 17.00000
179 22.00000 13.00000
180 21.00000 2.00000
181 20.00000 19.00000
182 -20.00000 12.00000
183 -21.00000 2.00000
184 -24.00000 -4.00000
185 -19.00000 -13.00000
186 -31.00000 -17.00000
187 -7.00000 -17.00000
188 -9.00000 17.00000
189 -9.00000 0.00000
190 -4.00000 32.00000
191 -20.00000 -16.00000
192 -13.00000 -13.00000
193 -17.00000 -11.00000
194 -9.00000 -8.00000
195 -10.00000 -11.00000
196 -13.00000 -8.00000
197 -10.00000 -14.00000
198 -16.00000 -14.00000
199 -15.00000 -9.00000
200 -17.00000 -17.00000
DEMAND_SECTION
1 0
2 18
3 26
4 11
5 30
6 21
7 19
8 15
9 16
10 29
11 26
12 37
13 16
14 12
15 31
16 8
17 19
18 20
19 13
20 15
21 22
22 28
23 12
24 6
25 27
26 14
27 18
28 17
29 29
30 13
31 22
32 25
33 28
34 27
35 19
36 10
37 12
38 14
39 24
40 16
41 33
42 15
43 11
44 18
45 17
46 21
47 27
48 19
49 20
50 5
51 7
52 30
53 16
54 9
55 21
56 15
57 19
58 23
59 11
60 5
61 19
62 29
63 23
64 21
65 10
66 15
67 3
68 41
69 9
70 28
71 8
72 8
73 16
74 10
75 28
76 7
77 15
78 14
79 6
80 19
81 11
82 12
83 23
84 26
85 17
86 6
87 9
88 15
89 14
90 7
91 27
92 13
93 11
94 16
95 10
96 5
97 25
98 17
99 18
100 10
101 10
102 7
103 13
104 19
105 26
106 3
107 5
108 9
109 16
110 16
111 12
112 19
113 23
114 20
115 8
116 19
117 2
118 12
119 17
120 9
121 11
122 18
123 29
124 3
125 6
126 17
127 16
128 16
129 9
130 21
131 27
132 23
133 11
134 14
135 8
136 5
137 8
138 16
139 31
140 9
141 5
142 5
143 7
144 18
145 16
146 1
147 27
148 36
149 30
150 13
151 10
152 9
153 14
154 18
155 2
156 6
157 7
158 18
159 28
160 3
161 13
162 19
163 10
164 9
165 20
166 25
167 25
168 36
169 6
170 5
171 15
172 25
173 9
174 8
175 18
176 13
177 14
178 3
179 23
180 6
181 26
182 16
183 11
184 7
185 41
186 35
187 26
188 9
189 15
190 3
191 1
192 2
193 22
194 27
195 20
196 11
197 12
198 10
199 9
200 17
DEPOT_SECTION
1
-1
EOF
